% seed = 1691210

mint = 70;
% maxt = 220;

nActs = 42;
dur = [0,8,8,6,3,10,2,8,4,6,4,10,8,8,2,5,8,7,2,3,4,4,9,5,3,4,6,4,7,9,5,4,5,3,1,2,4,8,5,8,8,0];

nSkills = 4;
sreq = [| 0,0,0,0,
	| 1,0,0,7,
	| 1,0,2,0,
	| 2,0,0,6,
	| 1,0,5,0,
	| 4,0,0,1,
	| 7,0,0,4,
	| 4,0,7,0,
	| 5,0,0,6,
	| 7,0,5,0,
	| 0,0,5,5,
	| 0,4,0,4,
	| 3,0,0,4,
	| 0,0,4,7,
	| 0,0,4,3,
	| 0,1,0,4,
	| 0,4,0,2,
	| 0,5,2,0,
	| 2,0,3,0,
	| 0,0,7,4,
	| 5,0,0,3,
	| 0,0,1,6,
	| 4,0,0,4,
	| 5,2,0,0,
	| 0,0,5,3,
	| 0,0,6,4,
	| 4,0,0,4,
	| 3,0,2,0,
	| 0,2,0,4,
	| 6,0,0,3,
	| 4,0,0,3,
	| 0,5,0,4,
	| 2,4,0,0,
	| 0,6,5,0,
	| 0,4,0,4,
	| 5,0,0,7,
	| 7,3,0,0,
	| 0,3,7,0,
	| 2,4,0,0,
	| 3,0,0,3,
	| 5,2,0,0,
	| 0,0,0,0, |];

nResources = 30;
mastery = [| false,true,false,true,
	| true,true,true,false,
	| true,true,false,false,
	| false,true,false,true,
	| true,false,true,true,
	| false,false,false,true,
	| true,false,true,false,
	| true,false,false,true,
	| true,true,false,true,
	| true,true,true,false,
	| false,true,false,false,
	| false,false,true,false,
	| true,true,false,true,
	| false,true,true,true,
	| false,true,true,true,
	| false,false,true,false,
	| true,false,true,false,
	| true,false,false,false,
	| false,false,true,true,
	| false,true,true,true,
	| true,false,false,true,
	| false,false,true,false,
	| false,true,false,true,
	| true,false,false,true,
	| true,false,true,true,
	| true,false,true,false,
	| false,false,true,true,
	| false,false,false,true,
	| true,false,false,true,
	| false,true,true,false, |];

nPrecs = 73;
pred = [1,1,1,2,2,3,3,3,4,4,4,5,5,5,6,6,6,7,7,7,8,8,9,9,9,10,10,11,12,12,13,13,13,14,14,15,15,16,16,17,18,18,18,19,20,20,21,22,22,22,23,23,24,24,25,26,27,28,29,30,31,31,32,33,34,35,35,36,37,38,39,40,41];
succ = [2,3,4,6,16,9,5,8,11,20,13,11,15,16,10,28,7,21,14,23,10,27,33,18,31,12,24,17,20,23,17,25,18,38,15,41,25,19,20,24,26,19,36,24,37,31,22,35,37,27,34,30,38,40,29,35,34,36,32,31,34,32,40,39,36,41,38,41,39,39,42,42,42];

nUnrels = 454;
unpred = [2,2,2,2,2,2,2,2,2,2,2,3,3,3,3,3,3,3,3,4,4,4,4,4,4,4,4,4,4,4,4,4,4,4,4,4,5,5,5,5,5,5,5,5,5,5,5,5,5,5,5,5,5,5,6,6,6,6,6,6,6,6,6,6,7,7,7,7,7,7,7,7,7,7,7,7,7,7,7,8,8,8,8,8,8,8,8,8,8,8,8,8,8,8,8,8,9,9,9,9,9,9,9,9,9,9,9,9,9,9,9,9,9,9,10,10,10,10,10,10,10,10,10,10,10,10,10,10,10,10,10,11,11,11,11,11,11,11,11,11,11,11,11,11,11,11,11,11,11,11,11,11,11,11,11,11,12,12,12,12,12,12,12,12,12,12,12,12,12,12,12,12,12,12,13,13,13,13,13,13,13,13,13,13,13,13,13,13,14,14,14,14,14,14,14,14,14,14,14,14,14,14,14,14,14,14,14,15,15,15,15,15,15,15,15,15,15,15,15,15,15,15,15,15,15,15,15,15,16,16,16,16,16,16,16,16,16,16,16,16,16,17,17,17,17,17,17,17,17,17,17,17,17,17,17,17,17,17,17,17,17,18,18,18,18,18,18,18,18,18,18,18,18,18,18,19,19,19,19,19,19,19,19,19,19,19,19,19,19,19,19,19,19,20,20,20,20,20,20,20,20,20,20,20,20,20,21,21,21,21,21,21,21,21,21,21,21,22,22,22,22,22,22,22,22,22,22,22,23,23,23,23,23,23,23,23,23,23,23,24,24,24,24,24,24,24,24,24,24,24,24,24,24,25,25,25,25,25,25,25,25,25,25,25,25,25,26,26,26,26,26,26,26,26,26,26,26,27,27,27,27,27,27,27,27,27,27,27,28,28,28,28,28,28,28,28,28,28,28,29,29,29,29,29,29,29,29,29,29,30,30,30,30,30,31,31,31,31,31,32,32,32,32,32,32,32,32,33,33,33,33,33,33,33,34,34,34,34,34,35,35,35,36,36,36,36,37,37,37,38,38,39,39,40];
unsucc = [3,4,5,8,9,11,13,17,18,26,33,4,6,7,13,14,21,22,28,5,6,7,8,9,10,12,14,15,16,21,22,23,27,28,30,33,6,7,8,9,10,12,13,14,18,21,22,23,26,27,28,30,33,35,8,9,11,13,16,17,18,19,26,33,8,9,10,11,12,13,16,17,18,19,20,24,26,28,33,9,11,13,14,15,16,17,18,19,21,22,25,26,28,29,33,35,10,11,12,13,14,15,16,17,20,21,22,23,25,27,28,29,30,37,11,13,14,15,16,17,18,19,21,22,25,26,27,28,29,33,35,12,13,14,15,16,18,19,20,21,22,23,25,26,27,28,29,30,31,32,33,34,35,36,37,41,13,14,15,16,17,18,19,21,22,24,25,26,27,28,29,33,35,38,14,15,16,20,21,22,23,27,28,30,31,33,34,37,16,17,18,19,20,21,22,23,24,26,27,28,30,31,33,34,35,36,37,16,17,18,19,20,21,22,23,24,26,27,28,30,31,33,34,35,36,37,38,39,17,18,21,22,23,25,26,27,28,29,30,33,35,18,19,20,21,22,23,25,26,27,28,29,30,31,32,33,34,35,36,37,41,20,21,22,23,25,27,28,29,30,31,32,33,34,37,20,21,22,23,25,26,27,28,29,30,31,32,33,34,35,36,37,41,21,22,23,24,25,26,27,28,29,30,33,35,38,23,24,25,26,28,29,30,31,32,33,40,23,24,25,26,28,29,30,31,32,33,40,24,25,26,27,28,29,33,35,37,38,39,25,26,27,28,29,30,31,32,33,34,35,36,37,41,26,27,28,30,31,33,34,35,36,37,38,39,41,27,28,29,30,31,32,33,34,36,37,40,28,29,30,31,32,33,35,37,38,39,40,29,30,31,32,33,34,35,37,38,39,40,30,31,33,34,35,36,37,38,39,41,33,35,37,38,39,33,35,37,38,39,33,34,35,36,37,38,39,41,34,35,36,37,38,40,41,35,37,38,39,40,36,37,40,37,38,39,40,38,40,41,40,41,40,41,41];

USEFUL_RES = [{},
	{1,2,3,4,5,6,7,8,9,10,13,14,15,17,18,19,20,21,23,24,25,26,27,28,29},
	{2,3,5,7,8,9,10,12,13,14,15,16,17,18,19,20,21,22,24,25,26,27,29,30},
	{1,2,3,4,5,6,7,8,9,10,13,14,15,17,18,19,20,21,23,24,25,26,27,28,29},
	{2,3,5,7,8,9,10,12,13,14,15,16,17,18,19,20,21,22,24,25,26,27,29,30},
	{1,2,3,4,5,6,7,8,9,10,13,14,15,17,18,19,20,21,23,24,25,26,27,28,29},
	{1,2,3,4,5,6,7,8,9,10,13,14,15,17,18,19,20,21,23,24,25,26,27,28,29},
	{2,3,5,7,8,9,10,12,13,14,15,16,17,18,19,20,21,22,24,25,26,27,29,30},
	{1,2,3,4,5,6,7,8,9,10,13,14,15,17,18,19,20,21,23,24,25,26,27,28,29},
	{2,3,5,7,8,9,10,12,13,14,15,16,17,18,19,20,21,22,24,25,26,27,29,30},
	{1,2,4,5,6,7,8,9,10,12,13,14,15,16,17,19,20,21,22,23,24,25,26,27,28,29,30},
	{1,2,3,4,5,6,8,9,10,11,13,14,15,19,20,21,23,24,25,27,28,29,30},
	{1,2,3,4,5,6,7,8,9,10,13,14,15,17,18,19,20,21,23,24,25,26,27,28,29},
	{1,2,4,5,6,7,8,9,10,12,13,14,15,16,17,19,20,21,22,23,24,25,26,27,28,29,30},
	{1,2,4,5,6,7,8,9,10,12,13,14,15,16,17,19,20,21,22,23,24,25,26,27,28,29,30},
	{1,2,3,4,5,6,8,9,10,11,13,14,15,19,20,21,23,24,25,27,28,29,30},
	{1,2,3,4,5,6,8,9,10,11,13,14,15,19,20,21,23,24,25,27,28,29,30},
	{1,2,3,4,5,7,9,10,11,12,13,14,15,16,17,19,20,22,23,25,26,27,30},
	{2,3,5,7,8,9,10,12,13,14,15,16,17,18,19,20,21,22,24,25,26,27,29,30},
	{1,2,4,5,6,7,8,9,10,12,13,14,15,16,17,19,20,21,22,23,24,25,26,27,28,29,30},
	{1,2,3,4,5,6,7,8,9,10,13,14,15,17,18,19,20,21,23,24,25,26,27,28,29},
	{1,2,4,5,6,7,8,9,10,12,13,14,15,16,17,19,20,21,22,23,24,25,26,27,28,29,30},
	{1,2,3,4,5,6,7,8,9,10,13,14,15,17,18,19,20,21,23,24,25,26,27,28,29},
	{1,2,3,4,5,7,8,9,10,11,13,14,15,17,18,20,21,23,24,25,26,29,30},
	{1,2,4,5,6,7,8,9,10,12,13,14,15,16,17,19,20,21,22,23,24,25,26,27,28,29,30},
	{1,2,4,5,6,7,8,9,10,12,13,14,15,16,17,19,20,21,22,23,24,25,26,27,28,29,30},
	{1,2,3,4,5,6,7,8,9,10,13,14,15,17,18,19,20,21,23,24,25,26,27,28,29},
	{2,3,5,7,8,9,10,12,13,14,15,16,17,18,19,20,21,22,24,25,26,27,29,30},
	{1,2,3,4,5,6,8,9,10,11,13,14,15,19,20,21,23,24,25,27,28,29,30},
	{1,2,3,4,5,6,7,8,9,10,13,14,15,17,18,19,20,21,23,24,25,26,27,28,29},
	{1,2,3,4,5,6,7,8,9,10,13,14,15,17,18,19,20,21,23,24,25,26,27,28,29},
	{1,2,3,4,5,6,8,9,10,11,13,14,15,19,20,21,23,24,25,27,28,29,30},
	{1,2,3,4,5,7,8,9,10,11,13,14,15,17,18,20,21,23,24,25,26,29,30},
	{1,2,3,4,5,7,9,10,11,12,13,14,15,16,17,19,20,22,23,25,26,27,30},
	{1,2,3,4,5,6,8,9,10,11,13,14,15,19,20,21,23,24,25,27,28,29,30},
	{1,2,3,4,5,6,7,8,9,10,13,14,15,17,18,19,20,21,23,24,25,26,27,28,29},
	{1,2,3,4,5,7,8,9,10,11,13,14,15,17,18,20,21,23,24,25,26,29,30},
	{1,2,3,4,5,7,9,10,11,12,13,14,15,16,17,19,20,22,23,25,26,27,30},
	{1,2,3,4,5,7,8,9,10,11,13,14,15,17,18,20,21,23,24,25,26,29,30},
	{1,2,3,4,5,6,7,8,9,10,13,14,15,17,18,19,20,21,23,24,25,26,27,28,29},
	{1,2,3,4,5,7,8,9,10,11,13,14,15,17,18,20,21,23,24,25,26,29,30},
	{}];

POTENTIAL_ACT = [{2,4,6,7,9,11,12,13,14,15,16,17,18,20,21,22,23,24,25,26,27,29,30,31,32,33,34,35,36,37,38,39,40,41},
	{2,3,4,5,6,7,8,9,10,11,12,13,14,15,16,17,18,19,20,21,22,23,24,25,26,27,28,29,30,31,32,33,34,35,36,37,38,39,40,41},
	{2,3,4,5,6,7,8,9,10,12,13,16,17,18,19,21,23,24,27,28,29,30,31,32,33,34,35,36,37,38,39,40,41},
	{2,4,6,7,9,11,12,13,14,15,16,17,18,20,21,22,23,24,25,26,27,29,30,31,32,33,34,35,36,37,38,39,40,41},
	{2,3,4,5,6,7,8,9,10,11,12,13,14,15,16,17,18,19,20,21,22,23,24,25,26,27,28,29,30,31,32,33,34,35,36,37,38,39,40,41},
	{2,4,6,7,9,11,12,13,14,15,16,17,20,21,22,23,25,26,27,29,30,31,32,35,36,40},
	{2,3,4,5,6,7,8,9,10,11,13,14,15,18,19,20,21,22,23,24,25,26,27,28,30,31,33,34,36,37,38,39,40,41},
	{2,3,4,5,6,7,8,9,10,11,12,13,14,15,16,17,19,20,21,22,23,24,25,26,27,28,29,30,31,32,33,35,36,37,39,40,41},
	{2,3,4,5,6,7,8,9,10,11,12,13,14,15,16,17,18,19,20,21,22,23,24,25,26,27,28,29,30,31,32,33,34,35,36,37,38,39,40,41},
	{2,3,4,5,6,7,8,9,10,11,12,13,14,15,16,17,18,19,20,21,22,23,24,25,26,27,28,29,30,31,32,33,34,35,36,37,38,39,40,41},
	{12,16,17,18,24,29,32,33,34,35,37,38,39,41},
	{3,5,8,10,11,14,15,18,19,20,22,25,26,28,34,38},
	{2,3,4,5,6,7,8,9,10,11,12,13,14,15,16,17,18,19,20,21,22,23,24,25,26,27,28,29,30,31,32,33,34,35,36,37,38,39,40,41},
	{2,3,4,5,6,7,8,9,10,11,12,13,14,15,16,17,18,19,20,21,22,23,24,25,26,27,28,29,30,31,32,33,34,35,36,37,38,39,40,41},
	{2,3,4,5,6,7,8,9,10,11,12,13,14,15,16,17,18,19,20,21,22,23,24,25,26,27,28,29,30,31,32,33,34,35,36,37,38,39,40,41},
	{3,5,8,10,11,14,15,18,19,20,22,25,26,28,34,38},
	{2,3,4,5,6,7,8,9,10,11,13,14,15,18,19,20,21,22,23,24,25,26,27,28,30,31,33,34,36,37,38,39,40,41},
	{2,3,4,5,6,7,8,9,10,13,19,21,23,24,27,28,30,31,33,36,37,39,40,41},
	{2,3,4,5,6,7,8,9,10,11,12,13,14,15,16,17,18,19,20,21,22,23,25,26,27,28,29,30,31,32,34,35,36,38,40},
	{2,3,4,5,6,7,8,9,10,11,12,13,14,15,16,17,18,19,20,21,22,23,24,25,26,27,28,29,30,31,32,33,34,35,36,37,38,39,40,41},
	{2,3,4,5,6,7,8,9,10,11,12,13,14,15,16,17,19,20,21,22,23,24,25,26,27,28,29,30,31,32,33,35,36,37,39,40,41},
	{3,5,8,10,11,14,15,18,19,20,22,25,26,28,34,38},
	{2,4,6,7,9,11,12,13,14,15,16,17,18,20,21,22,23,24,25,26,27,29,30,31,32,33,34,35,36,37,38,39,40,41},
	{2,3,4,5,6,7,8,9,10,11,12,13,14,15,16,17,19,20,21,22,23,24,25,26,27,28,29,30,31,32,33,35,36,37,39,40,41},
	{2,3,4,5,6,7,8,9,10,11,12,13,14,15,16,17,18,19,20,21,22,23,24,25,26,27,28,29,30,31,32,33,34,35,36,37,38,39,40,41},
	{2,3,4,5,6,7,8,9,10,11,13,14,15,18,19,20,21,22,23,24,25,26,27,28,30,31,33,34,36,37,38,39,40,41},
	{2,3,4,5,6,7,8,9,10,11,12,13,14,15,16,17,18,19,20,21,22,23,25,26,27,28,29,30,31,32,34,35,36,38,40},
	{2,4,6,7,9,11,12,13,14,15,16,17,20,21,22,23,25,26,27,29,30,31,32,35,36,40},
	{2,3,4,5,6,7,8,9,10,11,12,13,14,15,16,17,19,20,21,22,23,24,25,26,27,28,29,30,31,32,33,35,36,37,39,40,41},
	{3,5,8,10,11,12,14,15,16,17,18,19,20,22,24,25,26,28,29,32,33,34,35,37,38,39,41}];
